150 573004037
149 53 71 9 61 2 17 3 86 24 57 23 140 131 87 137 11 145 50 69 4 36 138 130 136 31 45 78 8 124 97 51 15 112 81 116 117 55 150 95 142 46 107 115 94 85 77 127 6 62 108 60 114 89 44 79 98 68 123 22 48 34 128 12 147 67 126 125 106 13 1 33 25 129 30 56 101 121 41 83 42 37 52 59 135 75 70 43 148 26 27 99 58 93 20 80 28 10 111 7 88 91 100 14 73 103 74 133 102 105 19 141 92 29 35 122 110 143 132 104 38 65 16 64 139 39 49 96 134 54 119 84 66 76 5 144 146 32 113 109 82 47 72 21 90 63 120 118 40 18 
